instances/pdptw_sl/RC15_6_6.txt
[Vehicles]
1 10 1
2 6 0
3 8 0
4 11 1
5 9 1
6 12 0

[Requests]
2 2
3 2
4 1
5 2
6 2
7 2
8 3
9 2
10 1
11 2
12 3
13 2
14 1
15 1
16 1

[Fixed Lines]
32 34 30 60 90 120 150 180 210 240 270 300 330 360 390 420 450 480 510 540 570 |
34 32 30 60 90 120 150 180 210 240 270 300 330 360 390 420 450 480 510 540 570 |
33 34 30 60 90 120 150 180 210 240 270 300 330 360 390 420 450 480 510 540 570 |
34 33 30 60 90 120 150 180 210 240 270 300 330 360 390 420 450 480 510 540 570 |
32 33 30 60 90 120 150 180 210 240 270 300 330 360 390 420 450 480 510 540 570 |
33 32 30 60 90 120 150 180 210 240 270 300 330 360 390 420 450 480 510 540 570 |

[Nodes]
0 0 600 0
1 0 600 0
2 57 111 1
3 285 337 3
4 141 187 3
5 300 352 1
6 170 233 3
7 76 133 1
8 94 139 2
9 201 269 2
10 197 262 3
11 260 320 2
12 50 89 1
13 0 65 2
14 106 173 3
15 340 398 3
16 232 270 2
17 508 560 3
18 421 479 1
19 439 516 2
20 467 505 1
21 405 453 2
22 509 579 2
23 310 370 3
24 392 459 2
25 315 367 3
26 453 503 3
27 225 298 2
28 469 535 1
29 425 484 3
30 385 446 3
31 362 431 2
32 0 600 2
33 0 600 2
34 0 600 2

[Positions]
30 100
160 90
48 153
142 118
96 184
145 175
188 69
93 126
24 165
168 175
102 135
35 196
30 160
43 71
193 7
138 193
97 19
23 53
35 24
17 14
190 92
82 194
181 84
134 81
70 57
124 65
75 112
82 112
95 121
97 168
178 153
135 77
20 20
100 160
180 20
