instances/pdptw_sl_sol/PDPTW-SL Solutions Homogeneous costs/3SLs/RC15_6_6.sol
Objective function value: 1059.3806442927469

Vehicle 6: 0 (0.0)    13 (33.0)    11 (262.0)    28 (470.0)    26 (494.93)    0 (600.0)    
Vehicle 5: 0 (0.0)    12 (61.0)    8 (96.0)    27 (227.0)    10 (260.48)    23 (326.25)    25 (348.12)    0 (600.0)    
Vehicle 4: 1 (0.0)    7 (77.0)    5 (301.0)    15 (343.0)    30 (402.57)    20 (468.0)    22 (511.0)    1 (600.0)    
Vehicle 3: 1 (0.0)    6 (173.0)    59 (313.25)    21 (407.0)    29 (440.02)    1 (600.0)    
Vehicle 2: 1 (0.0)    14 (109.0)    74 (129.38)    16 (234.0)    31 (364.0)    1 (600.0)    
Vehicle 1: 0 (0.0)    2 (58.0)    4 (144.0)    9 (218.56)    3 (288.0)    24 (394.0)    18 (443.1)    19 (465.7)    17 (511.0)    0 (600.0)    

Scheduled lines' departures:

Request 14 from transfer node 34(74) to 33(59) at time 150 travel time 161.25

#Let transfer node X(x), where X is the physical transfer node and x is its replication related to request y. Routing considers replicated transfer nodes only, and not physical ones.